param MAXWORK := 32;

param:
TNAME: TWORK :=
'p2.e' 160
'p2.m' 340
'p2.f' 160
'p3.e' 80
'p3.m' 420
'p3.f' 160
'p4.e' 180
'p4.m' 420
'p4.f' 160
'p5.e' 160
'p5.m' 340
'p5.f' 160
'p6.e' 80
'p6.m' 420
'p6.f' 160
;

set TSCOPE['p2.e'] :=
1 2 5 6 7 8 9 12 13 14
;

set TSCOPE['p2.m'] :=
15 16 19 20 21 22 23 26 27 28 29 30 33 34 36 37 40 41 42 43 44 47 48 49 50 51 54 55 56 57 58 61 62 63 64 65 68 69 70 71 72 75 76 77 78 79 82 83 84 85
86 89 90 91 92 93 96 97 98 99 100 103 104 105 106 107 110 111 112 113 114 117 118 119 120 121 124 125 126 127 128 131 132 133
;

set TSCOPE['p2.f'] :=
134 135 138 139 140 141 142 145 146 147 148 149 152 153 154 155 156 159 160 161
;

set TSCOPE['p3.e'] :=
12 13 14 15 16 19 20 21 22 23
;

set TSCOPE['p3.m'] :=
26 27 28 29 30 33 34 36 37 40 41 42 43 44 47 48 49 50 51 54 55 56 57 58 61 62 63 64 65 68 69 70 71 72 75 76 77 78 79 82 83 84 85 86 89 90 91 92 93 96
97 98 99 100 103 104 105 106 107 110 111 112 113 114 117 118 119 120 121 124 125 126 127 128 131 132 133 134 135 138 139 140 141 142 145 146 147 148 149 152 153 154 155 156 159 160 161 162 163 166
167 168 169 170 173 174 175 176 177 180 181 182 183 184 187 188 189 190 191
;

set TSCOPE['p3.f'] :=
194 195 196 197 198 201 202 203 204 205 208 209 210 211 212 215 216 217 218 219
;

set TSCOPE['p4.e'] :=
26 27 28 29 30 33 34 36 37 40 41 42 43 44
;

set TSCOPE['p4.m'] :=
47 48 49 50 51 54 55 56 57 58 61 62 63 64 65 68 69 70 71 72 75 76 77 78 79 82 83 84 85 86 89 90 91 92 93 96 97 98 99 100 103 104 105 106 107 110 111 112 113 114
117 118 119 120 121 124 125 126 127 128 131 132 133 134 135 138 139 140 141 142 145 146 147 148 149 152 153 154 155 156 159 160 161 162 163 166 167 168 169 170 173 174 175 176 177 180 181 182 183 184
187 188 189 190 191 194 195 196 197 198 201 202 203 204 205 208 209 210 211 212
;

set TSCOPE['p4.f'] :=
215 216 217 218 219 222 223 224 225 226 229 230 231 232 233 236 237 238 239 240
;

set TSCOPE['p5.e'] :=
41 42 43 44 47 48 49 50 51 54
;

set TSCOPE['p5.m'] :=
55 56 57 58 61 62 63 64 65 68 69 70 71 72 75 76 77 78 79 82 83 84 85 86 89 90 91 92 93 96 97 98 99 100 103 104 105 106 107 110 111 112 113 114 117 118 119 120 121 124
125 126 127 128 131 132 133 134 135 138 139 140 141 142 145 146 147 148 149 152 153 154 155 156 159 160 161 162 163 166 167 168 169 170 173
;

set TSCOPE['p5.f'] :=
174 175 176 177 180 181 182 183 184 187 188 189 190 191 194 195 196 197 198 201
;

set TSCOPE['p6.e'] :=
61 62 63 64 65 68 69 70 71 72 75 76 77 78 79 82 83 84 85 86
;

set TSCOPE['p6.m'] :=
89 90 91 92 93 96 97 98 99 100 103 104 105 106 107 110 111 112 113 114 117 118 119 120 121 124 125 126 127 128 131 132 133 134 135 138 139 140 141 142 145 146 147 148 149 152 153 154 155 156
159 160 161 162 163 166 167 168 169 170 173 174 175 176 177 180 181 182 183 184 187 188 189 190 191 194 195 196 197 198 201 202 203 204 205 208 209 210 211 212 215 216 217 218 219 222 223 224 225 226
229 230 231 232 233 236 237 238 239 240 243 244 245 246 247 250 251 252 253 254
;

set TSCOPE['p6.f'] :=
257 258 259 260 261 264 265 266 267 268 271 272 273 274 275 278 279 280 281 282
;

set ENAME :=
'Bożydar'
;

set ASSIGN :=
'Bożydar' 'p2.e'
'Bożydar' 'p2.m'
'Bożydar' 'p2.f'
'Bożydar' 'p3.e'
'Bożydar' 'p3.m'
'Bożydar' 'p3.f'
'Bożydar' 'p4.e'
'Bożydar' 'p4.m'
'Bożydar' 'p4.f'
'Bożydar' 'p5.e'
'Bożydar' 'p5.m'
'Bożydar' 'p5.f'
'Bożydar' 'p6.e'
'Bożydar' 'p6.m'
'Bożydar' 'p6.f'
;

param:
XBID: XBL XBU :=
'Bożydar' 'p2.e' 1 12 20
'Bożydar' 'p2.e' 2 12 20
'Bożydar' 'p2.e' 5 12 20
'Bożydar' 'p2.e' 6 12 20
'Bożydar' 'p2.e' 7 12 20
'Bożydar' 'p2.e' 8 12 20
'Bożydar' 'p2.e' 9 12 20
'Bożydar' 'p2.e' 12 12 20
'Bożydar' 'p2.e' 13 12 20
'Bożydar' 'p2.e' 14 12 20
'Bożydar' 'p2.m' 15 0 8
'Bożydar' 'p2.m' 16 0 8
'Bożydar' 'p2.m' 19 0 8
'Bożydar' 'p2.m' 20 0 8
'Bożydar' 'p2.m' 21 0 8
'Bożydar' 'p2.m' 22 0 8
'Bożydar' 'p2.m' 23 0 8
'Bożydar' 'p2.m' 26 0 8
'Bożydar' 'p2.m' 27 0 8
'Bożydar' 'p2.m' 28 0 8
'Bożydar' 'p2.m' 29 0 8
'Bożydar' 'p2.m' 30 0 8
'Bożydar' 'p2.m' 33 0 8
'Bożydar' 'p2.m' 34 0 8
'Bożydar' 'p2.m' 36 0 8
'Bożydar' 'p2.m' 37 0 8
'Bożydar' 'p2.m' 40 0 8
'Bożydar' 'p2.m' 41 0 8
'Bożydar' 'p2.m' 42 0 8
'Bożydar' 'p2.m' 43 0 8
'Bożydar' 'p2.m' 44 0 8
'Bożydar' 'p2.m' 47 0 8
'Bożydar' 'p2.m' 48 0 8
'Bożydar' 'p2.m' 49 0 8
'Bożydar' 'p2.m' 50 0 8
'Bożydar' 'p2.m' 51 0 8
'Bożydar' 'p2.m' 54 0 8
'Bożydar' 'p2.m' 55 0 8
'Bożydar' 'p2.m' 56 0 8
'Bożydar' 'p2.m' 57 0 8
'Bożydar' 'p2.m' 58 0 8
'Bożydar' 'p2.m' 61 0 8
'Bożydar' 'p2.m' 62 0 8
'Bożydar' 'p2.m' 63 0 8
'Bożydar' 'p2.m' 64 0 8
'Bożydar' 'p2.m' 65 0 8
'Bożydar' 'p2.m' 68 0 8
'Bożydar' 'p2.m' 69 0 8
'Bożydar' 'p2.m' 70 0 8
'Bożydar' 'p2.m' 71 0 8
'Bożydar' 'p2.m' 72 0 8
'Bożydar' 'p2.m' 75 0 8
'Bożydar' 'p2.m' 76 0 8
'Bożydar' 'p2.m' 77 0 8
'Bożydar' 'p2.m' 78 0 8
'Bożydar' 'p2.m' 79 0 8
'Bożydar' 'p2.m' 82 0 8
'Bożydar' 'p2.m' 83 0 8
'Bożydar' 'p2.m' 84 0 8
'Bożydar' 'p2.m' 85 0 8
'Bożydar' 'p2.m' 86 0 8
'Bożydar' 'p2.m' 89 0 8
'Bożydar' 'p2.m' 90 0 8
'Bożydar' 'p2.m' 91 0 8
'Bożydar' 'p2.m' 92 0 8
'Bożydar' 'p2.m' 93 0 8
'Bożydar' 'p2.m' 96 0 8
'Bożydar' 'p2.m' 97 0 8
'Bożydar' 'p2.m' 98 0 8
'Bożydar' 'p2.m' 99 0 8
'Bożydar' 'p2.m' 100 0 8
'Bożydar' 'p2.m' 103 0 8
'Bożydar' 'p2.m' 104 0 8
'Bożydar' 'p2.m' 105 0 8
'Bożydar' 'p2.m' 106 0 8
'Bożydar' 'p2.m' 107 0 8
'Bożydar' 'p2.m' 110 0 8
'Bożydar' 'p2.m' 111 0 8
'Bożydar' 'p2.m' 112 0 8
'Bożydar' 'p2.m' 113 0 8
'Bożydar' 'p2.m' 114 0 8
'Bożydar' 'p2.m' 117 0 8
'Bożydar' 'p2.m' 118 0 8
'Bożydar' 'p2.m' 119 0 8
'Bożydar' 'p2.m' 120 0 8
'Bożydar' 'p2.m' 121 0 8
'Bożydar' 'p2.m' 124 0 8
'Bożydar' 'p2.m' 125 0 8
'Bożydar' 'p2.m' 126 0 8
'Bożydar' 'p2.m' 127 0 8
'Bożydar' 'p2.m' 128 0 8
'Bożydar' 'p2.m' 131 0 8
'Bożydar' 'p2.m' 132 0 8
'Bożydar' 'p2.m' 133 0 8
'Bożydar' 'p2.f' 134 8 8
'Bożydar' 'p2.f' 135 8 8
'Bożydar' 'p2.f' 138 8 8
'Bożydar' 'p2.f' 139 8 8
'Bożydar' 'p2.f' 140 8 8
'Bożydar' 'p2.f' 141 8 8
'Bożydar' 'p2.f' 142 8 8
'Bożydar' 'p2.f' 145 8 8
'Bożydar' 'p2.f' 146 8 8
'Bożydar' 'p2.f' 147 8 8
'Bożydar' 'p2.f' 148 8 8
'Bożydar' 'p2.f' 149 8 8
'Bożydar' 'p2.f' 152 8 8
'Bożydar' 'p2.f' 153 8 8
'Bożydar' 'p2.f' 154 8 8
'Bożydar' 'p2.f' 155 8 8
'Bożydar' 'p2.f' 156 8 8
'Bożydar' 'p2.f' 159 8 8
'Bożydar' 'p2.f' 160 8 8
'Bożydar' 'p2.f' 161 8 8
'Bożydar' 'p3.e' 12 4 12
'Bożydar' 'p3.e' 13 4 12
'Bożydar' 'p3.e' 14 4 12
'Bożydar' 'p3.e' 15 4 12
'Bożydar' 'p3.e' 16 4 12
'Bożydar' 'p3.e' 19 4 12
'Bożydar' 'p3.e' 20 4 12
'Bożydar' 'p3.e' 21 4 12
'Bożydar' 'p3.e' 22 4 12
'Bożydar' 'p3.e' 23 4 12
'Bożydar' 'p3.m' 26 0 4
'Bożydar' 'p3.m' 27 0 4
'Bożydar' 'p3.m' 28 0 4
'Bożydar' 'p3.m' 29 0 4
'Bożydar' 'p3.m' 30 0 4
'Bożydar' 'p3.m' 33 0 4
'Bożydar' 'p3.m' 34 0 4
'Bożydar' 'p3.m' 36 0 4
'Bożydar' 'p3.m' 37 0 4
'Bożydar' 'p3.m' 40 0 4
'Bożydar' 'p3.m' 41 0 4
'Bożydar' 'p3.m' 42 0 4
'Bożydar' 'p3.m' 43 0 4
'Bożydar' 'p3.m' 44 0 4
'Bożydar' 'p3.m' 47 0 4
'Bożydar' 'p3.m' 48 0 4
'Bożydar' 'p3.m' 49 0 4
'Bożydar' 'p3.m' 50 0 4
'Bożydar' 'p3.m' 51 0 4
'Bożydar' 'p3.m' 54 0 4
'Bożydar' 'p3.m' 55 0 4
'Bożydar' 'p3.m' 56 0 4
'Bożydar' 'p3.m' 57 0 4
'Bożydar' 'p3.m' 58 0 4
'Bożydar' 'p3.m' 61 0 4
'Bożydar' 'p3.m' 62 0 4
'Bożydar' 'p3.m' 63 0 4
'Bożydar' 'p3.m' 64 0 4
'Bożydar' 'p3.m' 65 0 4
'Bożydar' 'p3.m' 68 0 4
'Bożydar' 'p3.m' 69 0 4
'Bożydar' 'p3.m' 70 0 4
'Bożydar' 'p3.m' 71 0 4
'Bożydar' 'p3.m' 72 0 4
'Bożydar' 'p3.m' 75 0 4
'Bożydar' 'p3.m' 76 0 4
'Bożydar' 'p3.m' 77 0 4
'Bożydar' 'p3.m' 78 0 4
'Bożydar' 'p3.m' 79 0 4
'Bożydar' 'p3.m' 82 0 4
'Bożydar' 'p3.m' 83 0 4
'Bożydar' 'p3.m' 84 0 4
'Bożydar' 'p3.m' 85 0 4
'Bożydar' 'p3.m' 86 0 4
'Bożydar' 'p3.m' 89 0 4
'Bożydar' 'p3.m' 90 0 4
'Bożydar' 'p3.m' 91 0 4
'Bożydar' 'p3.m' 92 0 4
'Bożydar' 'p3.m' 93 0 4
'Bożydar' 'p3.m' 96 0 4
'Bożydar' 'p3.m' 97 0 4
'Bożydar' 'p3.m' 98 0 4
'Bożydar' 'p3.m' 99 0 4
'Bożydar' 'p3.m' 100 0 4
'Bożydar' 'p3.m' 103 0 4
'Bożydar' 'p3.m' 104 0 4
'Bożydar' 'p3.m' 105 0 4
'Bożydar' 'p3.m' 106 0 4
'Bożydar' 'p3.m' 107 0 4
'Bożydar' 'p3.m' 110 0 4
'Bożydar' 'p3.m' 111 0 4
'Bożydar' 'p3.m' 112 0 4
'Bożydar' 'p3.m' 113 0 4
'Bożydar' 'p3.m' 114 0 4
'Bożydar' 'p3.m' 117 0 4
'Bożydar' 'p3.m' 118 0 4
'Bożydar' 'p3.m' 119 0 4
'Bożydar' 'p3.m' 120 0 4
'Bożydar' 'p3.m' 121 0 4
'Bożydar' 'p3.m' 124 0 4
'Bożydar' 'p3.m' 125 0 4
'Bożydar' 'p3.m' 126 0 4
'Bożydar' 'p3.m' 127 0 4
'Bożydar' 'p3.m' 128 0 4
'Bożydar' 'p3.m' 131 0 4
'Bożydar' 'p3.m' 132 0 4
'Bożydar' 'p3.m' 133 0 4
'Bożydar' 'p3.m' 134 0 4
'Bożydar' 'p3.m' 135 0 4
'Bożydar' 'p3.m' 138 0 4
'Bożydar' 'p3.m' 139 0 4
'Bożydar' 'p3.m' 140 0 4
'Bożydar' 'p3.m' 141 0 4
'Bożydar' 'p3.m' 142 0 4
'Bożydar' 'p3.m' 145 0 4
'Bożydar' 'p3.m' 146 0 4
'Bożydar' 'p3.m' 147 0 4
'Bożydar' 'p3.m' 148 0 4
'Bożydar' 'p3.m' 149 0 4
'Bożydar' 'p3.m' 152 0 4
'Bożydar' 'p3.m' 153 0 4
'Bożydar' 'p3.m' 154 0 4
'Bożydar' 'p3.m' 155 0 4
'Bożydar' 'p3.m' 156 0 4
'Bożydar' 'p3.m' 159 0 4
'Bożydar' 'p3.m' 160 0 4
'Bożydar' 'p3.m' 161 0 4
'Bożydar' 'p3.m' 162 0 4
'Bożydar' 'p3.m' 163 0 4
'Bożydar' 'p3.m' 166 0 4
'Bożydar' 'p3.m' 167 0 4
'Bożydar' 'p3.m' 168 0 4
'Bożydar' 'p3.m' 169 0 4
'Bożydar' 'p3.m' 170 0 4
'Bożydar' 'p3.m' 173 0 4
'Bożydar' 'p3.m' 174 0 4
'Bożydar' 'p3.m' 175 0 4
'Bożydar' 'p3.m' 176 0 4
'Bożydar' 'p3.m' 177 0 4
'Bożydar' 'p3.m' 180 0 4
'Bożydar' 'p3.m' 181 0 4
'Bożydar' 'p3.m' 182 0 4
'Bożydar' 'p3.m' 183 0 4
'Bożydar' 'p3.m' 184 0 4
'Bożydar' 'p3.m' 187 0 4
'Bożydar' 'p3.m' 188 0 4
'Bożydar' 'p3.m' 189 0 4
'Bożydar' 'p3.m' 190 0 4
'Bożydar' 'p3.m' 191 0 4
'Bożydar' 'p3.f' 194 8 8
'Bożydar' 'p3.f' 195 8 8
'Bożydar' 'p3.f' 196 8 8
'Bożydar' 'p3.f' 197 8 8
'Bożydar' 'p3.f' 198 8 8
'Bożydar' 'p3.f' 201 8 8
'Bożydar' 'p3.f' 202 8 8
'Bożydar' 'p3.f' 203 8 8
'Bożydar' 'p3.f' 204 8 8
'Bożydar' 'p3.f' 205 8 8
'Bożydar' 'p3.f' 208 8 8
'Bożydar' 'p3.f' 209 8 8
'Bożydar' 'p3.f' 210 8 8
'Bożydar' 'p3.f' 211 8 8
'Bożydar' 'p3.f' 212 8 8
'Bożydar' 'p3.f' 215 8 8
'Bożydar' 'p3.f' 216 8 8
'Bożydar' 'p3.f' 217 8 8
'Bożydar' 'p3.f' 218 8 8
'Bożydar' 'p3.f' 219 8 8
'Bożydar' 'p4.e' 26 12 16
'Bożydar' 'p4.e' 27 12 16
'Bożydar' 'p4.e' 28 12 16
'Bożydar' 'p4.e' 29 12 16
'Bożydar' 'p4.e' 30 12 16
'Bożydar' 'p4.e' 33 12 16
'Bożydar' 'p4.e' 34 12 16
'Bożydar' 'p4.e' 36 12 16
'Bożydar' 'p4.e' 37 12 16
'Bożydar' 'p4.e' 40 12 16
'Bożydar' 'p4.e' 41 12 16
'Bożydar' 'p4.e' 42 12 16
'Bożydar' 'p4.e' 43 12 16
'Bożydar' 'p4.e' 44 12 16
'Bożydar' 'p4.m' 47 0 4
'Bożydar' 'p4.m' 48 0 4
'Bożydar' 'p4.m' 49 0 4
'Bożydar' 'p4.m' 50 0 4
'Bożydar' 'p4.m' 51 0 4
'Bożydar' 'p4.m' 54 0 4
'Bożydar' 'p4.m' 55 0 4
'Bożydar' 'p4.m' 56 0 4
'Bożydar' 'p4.m' 57 0 4
'Bożydar' 'p4.m' 58 0 4
'Bożydar' 'p4.m' 61 0 4
'Bożydar' 'p4.m' 62 0 4
'Bożydar' 'p4.m' 63 0 4
'Bożydar' 'p4.m' 64 0 4
'Bożydar' 'p4.m' 65 0 4
'Bożydar' 'p4.m' 68 0 4
'Bożydar' 'p4.m' 69 0 4
'Bożydar' 'p4.m' 70 0 4
'Bożydar' 'p4.m' 71 0 4
'Bożydar' 'p4.m' 72 0 4
'Bożydar' 'p4.m' 75 0 4
'Bożydar' 'p4.m' 76 0 4
'Bożydar' 'p4.m' 77 0 4
'Bożydar' 'p4.m' 78 0 4
'Bożydar' 'p4.m' 79 0 4
'Bożydar' 'p4.m' 82 0 4
'Bożydar' 'p4.m' 83 0 4
'Bożydar' 'p4.m' 84 0 4
'Bożydar' 'p4.m' 85 0 4
'Bożydar' 'p4.m' 86 0 4
'Bożydar' 'p4.m' 89 0 4
'Bożydar' 'p4.m' 90 0 4
'Bożydar' 'p4.m' 91 0 4
'Bożydar' 'p4.m' 92 0 4
'Bożydar' 'p4.m' 93 0 4
'Bożydar' 'p4.m' 96 0 4
'Bożydar' 'p4.m' 97 0 4
'Bożydar' 'p4.m' 98 0 4
'Bożydar' 'p4.m' 99 0 4
'Bożydar' 'p4.m' 100 0 4
'Bożydar' 'p4.m' 103 0 4
'Bożydar' 'p4.m' 104 0 4
'Bożydar' 'p4.m' 105 0 4
'Bożydar' 'p4.m' 106 0 4
'Bożydar' 'p4.m' 107 0 4
'Bożydar' 'p4.m' 110 0 4
'Bożydar' 'p4.m' 111 0 4
'Bożydar' 'p4.m' 112 0 4
'Bożydar' 'p4.m' 113 0 4
'Bożydar' 'p4.m' 114 0 4
'Bożydar' 'p4.m' 117 0 4
'Bożydar' 'p4.m' 118 0 4
'Bożydar' 'p4.m' 119 0 4
'Bożydar' 'p4.m' 120 0 4
'Bożydar' 'p4.m' 121 0 4
'Bożydar' 'p4.m' 124 0 4
'Bożydar' 'p4.m' 125 0 4
'Bożydar' 'p4.m' 126 0 4
'Bożydar' 'p4.m' 127 0 4
'Bożydar' 'p4.m' 128 0 4
'Bożydar' 'p4.m' 131 0 4
'Bożydar' 'p4.m' 132 0 4
'Bożydar' 'p4.m' 133 0 4
'Bożydar' 'p4.m' 134 0 4
'Bożydar' 'p4.m' 135 0 4
'Bożydar' 'p4.m' 138 0 4
'Bożydar' 'p4.m' 139 0 4
'Bożydar' 'p4.m' 140 0 4
'Bożydar' 'p4.m' 141 0 4
'Bożydar' 'p4.m' 142 0 4
'Bożydar' 'p4.m' 145 0 4
'Bożydar' 'p4.m' 146 0 4
'Bożydar' 'p4.m' 147 0 4
'Bożydar' 'p4.m' 148 0 4
'Bożydar' 'p4.m' 149 0 4
'Bożydar' 'p4.m' 152 0 4
'Bożydar' 'p4.m' 153 0 4
'Bożydar' 'p4.m' 154 0 4
'Bożydar' 'p4.m' 155 0 4
'Bożydar' 'p4.m' 156 0 4
'Bożydar' 'p4.m' 159 0 4
'Bożydar' 'p4.m' 160 0 4
'Bożydar' 'p4.m' 161 0 4
'Bożydar' 'p4.m' 162 0 4
'Bożydar' 'p4.m' 163 0 4
'Bożydar' 'p4.m' 166 0 4
'Bożydar' 'p4.m' 167 0 4
'Bożydar' 'p4.m' 168 0 4
'Bożydar' 'p4.m' 169 0 4
'Bożydar' 'p4.m' 170 0 4
'Bożydar' 'p4.m' 173 0 4
'Bożydar' 'p4.m' 174 0 4
'Bożydar' 'p4.m' 175 0 4
'Bożydar' 'p4.m' 176 0 4
'Bożydar' 'p4.m' 177 0 4
'Bożydar' 'p4.m' 180 0 4
'Bożydar' 'p4.m' 181 0 4
'Bożydar' 'p4.m' 182 0 4
'Bożydar' 'p4.m' 183 0 4
'Bożydar' 'p4.m' 184 0 4
'Bożydar' 'p4.m' 187 0 4
'Bożydar' 'p4.m' 188 0 4
'Bożydar' 'p4.m' 189 0 4
'Bożydar' 'p4.m' 190 0 4
'Bożydar' 'p4.m' 191 0 4
'Bożydar' 'p4.m' 194 0 4
'Bożydar' 'p4.m' 195 0 4
'Bożydar' 'p4.m' 196 0 4
'Bożydar' 'p4.m' 197 0 4
'Bożydar' 'p4.m' 198 0 4
'Bożydar' 'p4.m' 201 0 4
'Bożydar' 'p4.m' 202 0 4
'Bożydar' 'p4.m' 203 0 4
'Bożydar' 'p4.m' 204 0 4
'Bożydar' 'p4.m' 205 0 4
'Bożydar' 'p4.m' 208 0 4
'Bożydar' 'p4.m' 209 0 4
'Bożydar' 'p4.m' 210 0 4
'Bożydar' 'p4.m' 211 0 4
'Bożydar' 'p4.m' 212 0 4
'Bożydar' 'p4.f' 215 8 8
'Bożydar' 'p4.f' 216 8 8
'Bożydar' 'p4.f' 217 8 8
'Bożydar' 'p4.f' 218 8 8
'Bożydar' 'p4.f' 219 8 8
'Bożydar' 'p4.f' 222 8 8
'Bożydar' 'p4.f' 223 8 8
'Bożydar' 'p4.f' 224 8 8
'Bożydar' 'p4.f' 225 8 8
'Bożydar' 'p4.f' 226 8 8
'Bożydar' 'p4.f' 229 8 8
'Bożydar' 'p4.f' 230 8 8
'Bożydar' 'p4.f' 231 8 8
'Bożydar' 'p4.f' 232 8 8
'Bożydar' 'p4.f' 233 8 8
'Bożydar' 'p4.f' 236 8 8
'Bożydar' 'p4.f' 237 8 8
'Bożydar' 'p4.f' 238 8 8
'Bożydar' 'p4.f' 239 8 8
'Bożydar' 'p4.f' 240 8 8
'Bożydar' 'p5.e' 41 16 16
'Bożydar' 'p5.e' 42 16 16
'Bożydar' 'p5.e' 43 16 16
'Bożydar' 'p5.e' 44 16 16
'Bożydar' 'p5.e' 47 16 16
'Bożydar' 'p5.e' 48 16 16
'Bożydar' 'p5.e' 49 16 16
'Bożydar' 'p5.e' 50 16 16
'Bożydar' 'p5.e' 51 16 16
'Bożydar' 'p5.e' 54 16 16
'Bożydar' 'p5.m' 55 0 8
'Bożydar' 'p5.m' 56 0 8
'Bożydar' 'p5.m' 57 0 8
'Bożydar' 'p5.m' 58 0 8
'Bożydar' 'p5.m' 61 0 8
'Bożydar' 'p5.m' 62 0 8
'Bożydar' 'p5.m' 63 0 8
'Bożydar' 'p5.m' 64 0 8
'Bożydar' 'p5.m' 65 0 8
'Bożydar' 'p5.m' 68 0 8
'Bożydar' 'p5.m' 69 0 8
'Bożydar' 'p5.m' 70 0 8
'Bożydar' 'p5.m' 71 0 8
'Bożydar' 'p5.m' 72 0 8
'Bożydar' 'p5.m' 75 0 8
'Bożydar' 'p5.m' 76 0 8
'Bożydar' 'p5.m' 77 0 8
'Bożydar' 'p5.m' 78 0 8
'Bożydar' 'p5.m' 79 0 8
'Bożydar' 'p5.m' 82 0 8
'Bożydar' 'p5.m' 83 0 8
'Bożydar' 'p5.m' 84 0 8
'Bożydar' 'p5.m' 85 0 8
'Bożydar' 'p5.m' 86 0 8
'Bożydar' 'p5.m' 89 0 8
'Bożydar' 'p5.m' 90 0 8
'Bożydar' 'p5.m' 91 0 8
'Bożydar' 'p5.m' 92 0 8
'Bożydar' 'p5.m' 93 0 8
'Bożydar' 'p5.m' 96 0 8
'Bożydar' 'p5.m' 97 0 8
'Bożydar' 'p5.m' 98 0 8
'Bożydar' 'p5.m' 99 0 8
'Bożydar' 'p5.m' 100 0 8
'Bożydar' 'p5.m' 103 0 8
'Bożydar' 'p5.m' 104 0 8
'Bożydar' 'p5.m' 105 0 8
'Bożydar' 'p5.m' 106 0 8
'Bożydar' 'p5.m' 107 0 8
'Bożydar' 'p5.m' 110 0 8
'Bożydar' 'p5.m' 111 0 8
'Bożydar' 'p5.m' 112 0 8
'Bożydar' 'p5.m' 113 0 8
'Bożydar' 'p5.m' 114 0 8
'Bożydar' 'p5.m' 117 0 8
'Bożydar' 'p5.m' 118 0 8
'Bożydar' 'p5.m' 119 0 8
'Bożydar' 'p5.m' 120 0 8
'Bożydar' 'p5.m' 121 0 8
'Bożydar' 'p5.m' 124 0 8
'Bożydar' 'p5.m' 125 0 8
'Bożydar' 'p5.m' 126 0 8
'Bożydar' 'p5.m' 127 0 8
'Bożydar' 'p5.m' 128 0 8
'Bożydar' 'p5.m' 131 0 8
'Bożydar' 'p5.m' 132 0 8
'Bożydar' 'p5.m' 133 0 8
'Bożydar' 'p5.m' 134 0 8
'Bożydar' 'p5.m' 135 0 8
'Bożydar' 'p5.m' 138 0 8
'Bożydar' 'p5.m' 139 0 8
'Bożydar' 'p5.m' 140 0 8
'Bożydar' 'p5.m' 141 0 8
'Bożydar' 'p5.m' 142 0 8
'Bożydar' 'p5.m' 145 0 8
'Bożydar' 'p5.m' 146 0 8
'Bożydar' 'p5.m' 147 0 8
'Bożydar' 'p5.m' 148 0 8
'Bożydar' 'p5.m' 149 0 8
'Bożydar' 'p5.m' 152 0 8
'Bożydar' 'p5.m' 153 0 8
'Bożydar' 'p5.m' 154 0 8
'Bożydar' 'p5.m' 155 0 8
'Bożydar' 'p5.m' 156 0 8
'Bożydar' 'p5.m' 159 0 8
'Bożydar' 'p5.m' 160 0 8
'Bożydar' 'p5.m' 161 0 8
'Bożydar' 'p5.m' 162 0 8
'Bożydar' 'p5.m' 163 0 8
'Bożydar' 'p5.m' 166 0 8
'Bożydar' 'p5.m' 167 0 8
'Bożydar' 'p5.m' 168 0 8
'Bożydar' 'p5.m' 169 0 8
'Bożydar' 'p5.m' 170 0 8
'Bożydar' 'p5.m' 173 0 8
'Bożydar' 'p5.f' 174 8 8
'Bożydar' 'p5.f' 175 8 8
'Bożydar' 'p5.f' 176 8 8
'Bożydar' 'p5.f' 177 8 8
'Bożydar' 'p5.f' 180 8 8
'Bożydar' 'p5.f' 181 8 8
'Bożydar' 'p5.f' 182 8 8
'Bożydar' 'p5.f' 183 8 8
'Bożydar' 'p5.f' 184 8 8
'Bożydar' 'p5.f' 187 8 8
'Bożydar' 'p5.f' 188 8 8
'Bożydar' 'p5.f' 189 8 8
'Bożydar' 'p5.f' 190 8 8
'Bożydar' 'p5.f' 191 8 8
'Bożydar' 'p5.f' 194 8 8
'Bożydar' 'p5.f' 195 8 8
'Bożydar' 'p5.f' 196 8 8
'Bożydar' 'p5.f' 197 8 8
'Bożydar' 'p5.f' 198 8 8
'Bożydar' 'p5.f' 201 8 8
'Bożydar' 'p6.e' 61 0 8
'Bożydar' 'p6.e' 62 0 8
'Bożydar' 'p6.e' 63 0 8
'Bożydar' 'p6.e' 64 0 8
'Bożydar' 'p6.e' 65 0 8
'Bożydar' 'p6.e' 68 0 8
'Bożydar' 'p6.e' 69 0 8
'Bożydar' 'p6.e' 70 0 8
'Bożydar' 'p6.e' 71 0 8
'Bożydar' 'p6.e' 72 0 8
'Bożydar' 'p6.e' 75 0 8
'Bożydar' 'p6.e' 76 0 8
'Bożydar' 'p6.e' 77 0 8
'Bożydar' 'p6.e' 78 0 8
'Bożydar' 'p6.e' 79 0 8
'Bożydar' 'p6.e' 82 0 8
'Bożydar' 'p6.e' 83 0 8
'Bożydar' 'p6.e' 84 0 8
'Bożydar' 'p6.e' 85 0 8
'Bożydar' 'p6.e' 86 0 8
'Bożydar' 'p6.m' 89 0 4
'Bożydar' 'p6.m' 90 0 4
'Bożydar' 'p6.m' 91 0 4
'Bożydar' 'p6.m' 92 0 4
'Bożydar' 'p6.m' 93 0 4
'Bożydar' 'p6.m' 96 0 4
'Bożydar' 'p6.m' 97 0 4
'Bożydar' 'p6.m' 98 0 4
'Bożydar' 'p6.m' 99 0 4
'Bożydar' 'p6.m' 100 0 4
'Bożydar' 'p6.m' 103 0 4
'Bożydar' 'p6.m' 104 0 4
'Bożydar' 'p6.m' 105 0 4
'Bożydar' 'p6.m' 106 0 4
'Bożydar' 'p6.m' 107 0 4
'Bożydar' 'p6.m' 110 0 4
'Bożydar' 'p6.m' 111 0 4
'Bożydar' 'p6.m' 112 0 4
'Bożydar' 'p6.m' 113 0 4
'Bożydar' 'p6.m' 114 0 4
'Bożydar' 'p6.m' 117 0 4
'Bożydar' 'p6.m' 118 0 4
'Bożydar' 'p6.m' 119 0 4
'Bożydar' 'p6.m' 120 0 4
'Bożydar' 'p6.m' 121 0 4
'Bożydar' 'p6.m' 124 0 4
'Bożydar' 'p6.m' 125 0 4
'Bożydar' 'p6.m' 126 0 4
'Bożydar' 'p6.m' 127 0 4
'Bożydar' 'p6.m' 128 0 4
'Bożydar' 'p6.m' 131 0 4
'Bożydar' 'p6.m' 132 0 4
'Bożydar' 'p6.m' 133 0 4
'Bożydar' 'p6.m' 134 0 4
'Bożydar' 'p6.m' 135 0 4
'Bożydar' 'p6.m' 138 0 4
'Bożydar' 'p6.m' 139 0 4
'Bożydar' 'p6.m' 140 0 4
'Bożydar' 'p6.m' 141 0 4
'Bożydar' 'p6.m' 142 0 4
'Bożydar' 'p6.m' 145 0 4
'Bożydar' 'p6.m' 146 0 4
'Bożydar' 'p6.m' 147 0 4
'Bożydar' 'p6.m' 148 0 4
'Bożydar' 'p6.m' 149 0 4
'Bożydar' 'p6.m' 152 0 4
'Bożydar' 'p6.m' 153 0 4
'Bożydar' 'p6.m' 154 0 4
'Bożydar' 'p6.m' 155 0 4
'Bożydar' 'p6.m' 156 0 4
'Bożydar' 'p6.m' 159 0 4
'Bożydar' 'p6.m' 160 0 4
'Bożydar' 'p6.m' 161 0 4
'Bożydar' 'p6.m' 162 0 4
'Bożydar' 'p6.m' 163 0 4
'Bożydar' 'p6.m' 166 0 4
'Bożydar' 'p6.m' 167 0 4
'Bożydar' 'p6.m' 168 0 4
'Bożydar' 'p6.m' 169 0 4
'Bożydar' 'p6.m' 170 0 4
'Bożydar' 'p6.m' 173 0 4
'Bożydar' 'p6.m' 174 0 4
'Bożydar' 'p6.m' 175 0 4
'Bożydar' 'p6.m' 176 0 4
'Bożydar' 'p6.m' 177 0 4
'Bożydar' 'p6.m' 180 0 4
'Bożydar' 'p6.m' 181 0 4
'Bożydar' 'p6.m' 182 0 4
'Bożydar' 'p6.m' 183 0 4
'Bożydar' 'p6.m' 184 0 4
'Bożydar' 'p6.m' 187 0 4
'Bożydar' 'p6.m' 188 0 4
'Bożydar' 'p6.m' 189 0 4
'Bożydar' 'p6.m' 190 0 4
'Bożydar' 'p6.m' 191 0 4
'Bożydar' 'p6.m' 194 0 4
'Bożydar' 'p6.m' 195 0 4
'Bożydar' 'p6.m' 196 0 4
'Bożydar' 'p6.m' 197 0 4
'Bożydar' 'p6.m' 198 0 4
'Bożydar' 'p6.m' 201 0 4
'Bożydar' 'p6.m' 202 0 4
'Bożydar' 'p6.m' 203 0 4
'Bożydar' 'p6.m' 204 0 4
'Bożydar' 'p6.m' 205 0 4
'Bożydar' 'p6.m' 208 0 4
'Bożydar' 'p6.m' 209 0 4
'Bożydar' 'p6.m' 210 0 4
'Bożydar' 'p6.m' 211 0 4
'Bożydar' 'p6.m' 212 0 4
'Bożydar' 'p6.m' 215 0 4
'Bożydar' 'p6.m' 216 0 4
'Bożydar' 'p6.m' 217 0 4
'Bożydar' 'p6.m' 218 0 4
'Bożydar' 'p6.m' 219 0 4
'Bożydar' 'p6.m' 222 0 4
'Bożydar' 'p6.m' 223 0 4
'Bożydar' 'p6.m' 224 0 4
'Bożydar' 'p6.m' 225 0 4
'Bożydar' 'p6.m' 226 0 4
'Bożydar' 'p6.m' 229 0 4
'Bożydar' 'p6.m' 230 0 4
'Bożydar' 'p6.m' 231 0 4
'Bożydar' 'p6.m' 232 0 4
'Bożydar' 'p6.m' 233 0 4
'Bożydar' 'p6.m' 236 0 4
'Bożydar' 'p6.m' 237 0 4
'Bożydar' 'p6.m' 238 0 4
'Bożydar' 'p6.m' 239 0 4
'Bożydar' 'p6.m' 240 0 4
'Bożydar' 'p6.m' 243 0 4
'Bożydar' 'p6.m' 244 0 4
'Bożydar' 'p6.m' 245 0 4
'Bożydar' 'p6.m' 246 0 4
'Bożydar' 'p6.m' 247 0 4
'Bożydar' 'p6.m' 250 0 4
'Bożydar' 'p6.m' 251 0 4
'Bożydar' 'p6.m' 252 0 4
'Bożydar' 'p6.m' 253 0 4
'Bożydar' 'p6.m' 254 0 4
'Bożydar' 'p6.f' 257 8 8
'Bożydar' 'p6.f' 258 8 8
'Bożydar' 'p6.f' 259 8 8
'Bożydar' 'p6.f' 260 8 8
'Bożydar' 'p6.f' 261 8 8
'Bożydar' 'p6.f' 264 8 8
'Bożydar' 'p6.f' 265 8 8
'Bożydar' 'p6.f' 266 8 8
'Bożydar' 'p6.f' 267 8 8
'Bożydar' 'p6.f' 268 8 8
'Bożydar' 'p6.f' 271 8 8
'Bożydar' 'p6.f' 272 8 8
'Bożydar' 'p6.f' 273 8 8
'Bożydar' 'p6.f' 274 8 8
'Bożydar' 'p6.f' 275 8 8
'Bożydar' 'p6.f' 278 8 8
'Bożydar' 'p6.f' 279 8 8
'Bożydar' 'p6.f' 280 8 8
'Bożydar' 'p6.f' 281 8 8
'Bożydar' 'p6.f' 282 8 8
;

param:
EBID: EBN EBS EBE EBL EBU :=

;

param:
PNAME: PERS PERE :=
'25.Jan' 21 56
'25.Feb' 57 85
'25.Mar' 86 116
'25.Apr' 117 145
'25.May' 146 179
;

param:
EXPPER: PBL PBU :=
'Bożydar' '25.Jan' 0 800
;

